
Gurobi 13.0.2 (win64) logging started Thu Jul 23 18:35:04 2026

Set parameter LogFile to value "E:\codes\ExactEBRP\results\gf_gurobi_performance_recovery_round29\runs\stage4__high_imbalance_seed5202__c4_candidate__rep1__300s\external\native_logs\L1.0.1.0_lp.gurobi.log"
Gurobi Optimizer version 13.0.2 build v13.0.2rc1 (win64 - Windows 10.0 (19045.2))

CPU model: 12th Gen Intel(R) Core(TM) i7-12700KF, instruction set [SSE2|AVX|AVX2]
Thread count: 12 physical cores, 20 logical processors, using up to 1 threads

Non-default parameters:
TimeLimit  274.313138
MIPGap  0
MIPGapAbs  0
LogToConsole  0
Threads  1

Optimize a model with 11923 rows, 3380 columns and 67410 nonzeros (Min)
Model fingerprint: 0x938cc014
Model has 21 linear objective coefficients
Coefficient statistics:
  Matrix range     [2e-02, 2e+04]
  Objective range  [2e-02, 1e+00]
  Bounds range     [3e-01, 8e+02]
  RHS range        [3e-01, 5e+04]

Presolve removed 1281 rows and 105 columns
Presolve time: 0.03s
Presolved: 10642 rows, 3276 columns, 57070 nonzeros

Iteration    Objective       Primal Inf.    Dual Inf.      Time
       0    3.7137545e-01   5.053326e+02   0.000000e+00      0s
    3506    1.1408912e+00   0.000000e+00   0.000000e+00      0s

Solved in 3506 iterations and 0.29 seconds (0.72 work units)
Optimal objective  1.140891207e+00

User-callback calls 3650, time in user-callback 0.00 sec
